certificates/rado_a5_c298_N59.drat
-59 0
56 0
-38 0
35 0
41 0
-53 0
-17 0
-23 0
20 0
50 0
26 0
5 0
14 0
-2 0
-58 0
-32 0
-8 0
-44 0
-54 0
-52 0
10 0
55 0
51 0
30 0
46 0
45 0
25 0
9 0
15 0
31 0
4 0
24 0
29 0
40 0
11 0
16 0
36 0
0
